
Gurobi 10.0.3 (win64, C++) logging started Tue Feb  6 18:10:07 2024

Set parameter TokenServer to value "141.30.89.215"
Set parameter Threads to value 8
Set parameter LazyConstraints to value 1
Set parameter PreCrush to value 1
Set parameter TimeLimit to value 28800
Set parameter SolutionLimit to value 10000
Gurobi Optimizer version 10.0.3 build v10.0.3rc0 (win64)

CPU model: AMD EPYC 7513 32-Core Processor, instruction set [SSE2|AVX|AVX2]
Thread count: 16 physical cores, 16 logical processors, using up to 8 threads

Optimize a model with 562 rows, 1089 columns and 3168 nonzeros
Model fingerprint: 0x1b63e3a5
Variable types: 0 continuous, 1089 integer (1089 binary)
Coefficient statistics:
  Matrix range     [1e+00, 1e+00]
  Objective range  [1e+01, 5e+02]
  Bounds range     [1e+00, 1e+00]
  RHS range        [1e+00, 4e+00]

Warning: Completing partial solution with 1018 unfixed non-continuous variables out of 1089
User MIP start produced solution with objective 2376.16 (0.00s)
Loaded user MIP start with objective 2376.16

Presolve removed 2 rows and 35 columns
Presolve time: 0.01s
Presolved: 560 rows, 1054 columns, 3066 nonzeros
Variable types: 0 continuous, 1054 integer (1054 binary)

Root relaxation: objective 1.600563e+03, 98 iterations, 0.00 seconds (0.00 work units)

    Nodes    |    Current Node    |     Objective Bounds      |     Work
 Expl Unexpl |  Obj  Depth IntInf | Incumbent    BestBd   Gap | It/Node Time

     0     0 1600.56339    0    - 2376.16446 1600.56339  32.6%     -    0s
     0     0 1907.28937    0   24 2376.16446 1907.28937  19.7%     -    0s
     0     0 1958.56491    0   10 2376.16446 1958.56491  17.6%     -    0s
     0     0 2005.15426    0   48 2376.16446 2005.15426  15.6%     -    0s
     0     0 2037.87082    0   32 2376.16446 2037.87082  14.2%     -    0s
     0     2 2073.86746    0   45 2376.16446 2073.86746  12.7%     -    0s
Warning: Completing partial solution with 1018 unfixed non-continuous variables out of 1089
H   49    37                    2371.8752508 2116.25407  10.8%  34.9    1s
Warning: Completing partial solution with 1018 unfixed non-continuous variables out of 1089
H  238   177                    2287.7100011 2116.25407  7.49%  27.5    3s
*  285   190              10    2130.7902288 2116.25407  0.68%  25.7    3s

Cutting planes:
  User: 130
  Gomory: 2
  Zero half: 1
  Lazy constraints: 286

Explored 580 nodes (9435 simplex iterations) in 3.23 seconds (0.49 work units)
Thread count was 8 (of 16 available processors)

Solution count 4: 2130.79 2287.71 2371.88 2376.16 

Optimal solution found (tolerance 1.00e-04)
Best objective 2.130790228805e+03, best bound 2.130790228805e+03, gap 0.0000%

User-callback calls 1507, time in user-callback 2.69 sec
### START EXACT APPROACH ###
ProblemVariant: 6
### START PREPROCESSING ###
## Start infeasible path procedure ## 
Deleted arcs: 2
Infeasible tail paths: 0
Infeasible 2-node combinations: 1
Deleted arcs: 2
Infeasible tail paths: 0
Infeasible 2-node combinations: 1
## Start start solution procedure ##
Start solution with 4 Vehicles and total costs 2376.16 in 0.0021209 s.
### END PREPROCESSING ###
Route 0 0-8-21-25-19-15-24-14-3-20-5-0 : weight util 0.901789 | volume util 0.985956 | 
Route 1 0-10-23-22-29-30-2-28-27-26-18-0 : weight util 0.991237 | volume util 0.988178 | 
Route 2 0-11-9-12-7-6-31-0 : weight util 0.489053 | volume util 0.993267 | 
Route 3 0-16-32-13-17-1-4-0 : weight util 0.211737 | volume util 0.791378 | 
